(set-info :smt-lib-version 2.6)
(set-logic QF_NRA)
(set-info :source |Benchmarks generated from hycomp (https://es-static.fbk.eu/tools/hycomp/). BMC instances of non-linear hybrid automata taken from: Alessandro Cimatti, Sergio Mover, Stefano Tonetta, A quantifier-free SMT encoding of non-linear hybrid automata, FMCAD 2012 and Alessandro Cimatti, Sergio Mover, Stefano Tonetta, Quantier-free encoding of invariants for Hybrid Systems, Formal Methods in System Design. This instance solves a BMC problem of depth 2 and uses the encoding obtained with quantifier elimination using redlog encoding. Contacts: Sergio Mover (mover@fbk.eu), Stefano Tonetta (tonettas@fbk.eu), Alessandro Cimatti (cimatti@fbk.eu).|)
(set-info :category "industrial")
(set-info :status sat)
;; MathSAT API call trace
;; generated on Mon Mar 19 10:45:03 2012
(declare-fun b.EVENT.0__AT0 () Bool)
(declare-fun b.time__AT1 () Real)
(declare-fun b.y__AT0 () Real)
(declare-fun b.counter.0__AT0 () Bool)
(declare-fun b.speed_y__AT2 () Real)
(declare-fun b.counter.2__AT0 () Bool)
(declare-fun b.counter.1__AT0 () Bool)
(declare-fun b.counter.1__AT1 () Bool)
(declare-fun b.counter.2__AT2 () Bool)
(declare-fun b.counter.2__AT1 () Bool)
(declare-fun b.counter.3__AT2 () Bool)
(declare-fun speed_loss__AT0 () Real)
(declare-fun b.speed_y__AT0 () Real)
(declare-fun b.event_is_timed__AT1 () Bool)
(declare-fun b.counter.0__AT2 () Bool)
(declare-fun b.event_is_timed__AT0 () Bool)
(declare-fun b.counter.1__AT2 () Bool)
(declare-fun b.event_is_timed__AT2 () Bool)
(declare-fun b.counter.3__AT1 () Bool)
(declare-fun b.y__AT1 () Real)
(declare-fun b.counter.0__AT1 () Bool)
(declare-fun b.counter.3__AT0 () Bool)
(declare-fun b.time__AT2 () Real)
(declare-fun b.delta__AT1 () Real)
(declare-fun b.delta__AT2 () Real)
(declare-fun b.EVENT.0__AT1 () Bool)
(declare-fun b.EVENT.1__AT0 () Bool)
(declare-fun b.delta__AT0 () Real)
(declare-fun b.EVENT.0__AT2 () Bool)
(declare-fun b.EVENT.1__AT1 () Bool)
(declare-fun b.y__AT2 () Real)
(declare-fun b.EVENT.1__AT2 () Bool)
(declare-fun b.speed_y__AT1 () Real)
(declare-fun b.time__AT0 () Real)
(assert (let ((.def_452 (* 49.0 b.delta__AT2)))
(let ((.def_453 (* b.delta__AT2 .def_452)))
(let ((.def_454 (* (- 1.0) .def_453)))
(let ((.def_450 (* 10.0 b.speed_y__AT2)))
(let ((.def_451 (* b.delta__AT2 .def_450)))
(let ((.def_455 (+ .def_451 .def_454)))
(let ((.def_456 (* 10.0 b.y__AT2)))
(let ((.def_458 (+ .def_456 .def_455)))
(let ((.def_459 (<= 0.0 .def_458)))
(let ((.def_486 (not .def_459)))
(let ((.def_470 (* (- 49.0) b.delta__AT2)))
(let ((.def_461 (* 5.0 b.speed_y__AT2)))
(let ((.def_471 (+ .def_461 .def_470)))
(let ((.def_472 (<= 0.0 .def_471)))
(let ((.def_487 (and .def_472 .def_486)))
(let ((.def_482 (<= b.speed_y__AT2 0.0 )))
(let ((.def_436 (<= 0.0 b.y__AT2)))
(let ((.def_485 (or .def_436 .def_482)))
(let ((.def_488 (or .def_485 .def_487)))
(let ((.def_481 (<= b.y__AT2 0.0 )))
(let ((.def_483 (and .def_481 .def_482)))
(let ((.def_476 (<= .def_471 0.0 )))
(let ((.def_477 (not .def_476)))
(let ((.def_474 (= .def_458 0.0 )))
(let ((.def_475 (not .def_474)))
(let ((.def_478 (or .def_475 .def_477)))
(let ((.def_473 (or .def_459 .def_472)))
(let ((.def_479 (and .def_473 .def_478)))
(let ((.def_462 (* b.speed_y__AT2 .def_461)))
(let ((.def_463 (* 98.0 b.y__AT2)))
(let ((.def_465 (+ .def_463 .def_462)))
(let ((.def_468 (<= .def_465 0.0 )))
(let ((.def_469 (not .def_468)))
(let ((.def_480 (or .def_469 .def_479)))
(let ((.def_484 (or .def_480 .def_483)))
(let ((.def_489 (and .def_484 .def_488)))
(let ((.def_466 (<= 0.0 .def_465)))
(let ((.def_467 (not .def_466)))
(let ((.def_490 (or .def_467 .def_489)))
(let ((.def_448 (<= 0.0 b.delta__AT2)))
(let ((.def_449 (not .def_448)))
(let ((.def_460 (or .def_449 .def_459)))
(let ((.def_491 (and .def_460 .def_490)))
(let ((.def_433 (not b.EVENT.0__AT2)))
(let ((.def_431 (not b.EVENT.1__AT2)))
(let ((.def_445 (and .def_431 .def_433)))
(let ((.def_446 (not .def_445)))
(let ((.def_492 (or .def_446 .def_491)))
(let ((.def_143 (not b.counter.0__AT1)))
(let ((.def_131 (not b.counter.1__AT1)))
(let ((.def_440 (and .def_131 .def_143)))
(let ((.def_138 (not b.counter.2__AT1)))
(let ((.def_441 (and .def_138 .def_440)))
(let ((.def_153 (not b.counter.3__AT1)))
(let ((.def_442 (and .def_153 .def_441)))
(let ((.def_58 (<= speed_loss__AT0 (/ 1 2))))
(let ((.def_55 (<= (/ 1 10) speed_loss__AT0)))
(let ((.def_59 (and .def_55 .def_58)))
(let ((.def_437 (and .def_59 .def_436)))
(let ((.def_434 (or .def_431 .def_433)))
(let ((.def_6 (not b.counter.0__AT2)))
(let ((.def_4 (not b.counter.1__AT2)))
(let ((.def_424 (or .def_4 .def_6)))
(let ((.def_428 (or b.counter.3__AT2 .def_424)))
(let ((.def_425 (or b.counter.2__AT2 .def_424)))
(let ((.def_9 (not b.counter.2__AT2)))
(let ((.def_423 (or .def_6 .def_9)))
(let ((.def_426 (and .def_423 .def_425)))
(let ((.def_12 (not b.counter.3__AT2)))
(let ((.def_427 (or .def_12 .def_426)))
(let ((.def_429 (and .def_427 .def_428)))
(let ((.def_435 (and .def_429 .def_434)))
(let ((.def_438 (and .def_435 .def_437)))
(let ((.def_265 (<= 0.0 b.delta__AT1)))
(let ((.def_253 (not b.EVENT.0__AT1)))
(let ((.def_251 (not b.EVENT.1__AT1)))
(let ((.def_262 (and .def_251 .def_253)))
(let ((.def_263 (not .def_262)))
(let ((.def_419 (or .def_263 .def_265)))
(let ((.def_420 (or b.EVENT.1__AT1 .def_419)))
(let ((.def_357 (= b.counter.0__AT2 b.counter.0__AT1)))
(let ((.def_355 (= b.counter.1__AT2 b.counter.1__AT1)))
(let ((.def_353 (= b.counter.2__AT2 b.counter.2__AT1)))
(let ((.def_352 (= b.counter.3__AT2 b.counter.3__AT1)))
(let ((.def_354 (and .def_352 .def_353)))
(let ((.def_356 (and .def_354 .def_355)))
(let ((.def_358 (and .def_356 .def_357)))
(let ((.def_416 (or .def_263 .def_358)))
(let ((.def_417 (or b.EVENT.1__AT1 .def_416)))
(let ((.def_408 (* (- 5.0) b.speed_y__AT2)))
(let ((.def_287 (* (- 49.0) b.delta__AT1)))
(let ((.def_409 (+ .def_287 .def_408)))
(let ((.def_278 (* 5.0 b.speed_y__AT1)))
(let ((.def_410 (+ .def_278 .def_409)))
(let ((.def_411 (= .def_410 0.0 )))
(let ((.def_399 (* b.speed_y__AT1 b.delta__AT1)))
(let ((.def_400 (* 10.0 .def_399)))
(let ((.def_397 (* b.delta__AT1 b.delta__AT1)))
(let ((.def_398 (* (- 49.0) .def_397)))
(let ((.def_401 (+ .def_398 .def_400)))
(let ((.def_402 (* (- 10.0) b.y__AT2)))
(let ((.def_405 (+ .def_402 .def_401)))
(let ((.def_273 (* 10.0 b.y__AT1)))
(let ((.def_406 (+ .def_273 .def_405)))
(let ((.def_407 (= .def_406 0.0 )))
(let ((.def_412 (and .def_407 .def_411)))
(let ((.def_413 (or .def_263 .def_412)))
(let ((.def_363 (= b.y__AT1 b.y__AT2)))
(let ((.def_351 (= b.speed_y__AT1 b.speed_y__AT2)))
(let ((.def_394 (and .def_351 .def_363)))
(let ((.def_391 (= b.delta__AT1 0.0 )))
(let ((.def_392 (and .def_262 .def_391)))
(let ((.def_393 (not .def_392)))
(let ((.def_395 (or .def_393 .def_394)))
(let ((.def_396 (or b.EVENT.1__AT1 .def_395)))
(let ((.def_414 (and .def_396 .def_413)))
(let ((.def_373 (= b.time__AT1 b.time__AT2)))
(let ((.def_385 (and .def_363 .def_373)))
(let ((.def_386 (and .def_351 .def_385)))
(let ((.def_387 (and .def_358 .def_386)))
(let ((.def_388 (or .def_251 .def_387)))
(let ((.def_376 (* (- 1.0) b.time__AT2)))
(let ((.def_379 (+ b.delta__AT1 .def_376)))
(let ((.def_380 (+ b.time__AT1 .def_379)))
(let ((.def_381 (= .def_380 0.0 )))
(let ((.def_382 (or .def_263 .def_381)))
(let ((.def_383 (or b.EVENT.1__AT1 .def_382)))
(let ((.def_374 (or .def_262 .def_373)))
(let ((.def_375 (or b.EVENT.1__AT1 .def_374)))
(let ((.def_384 (and .def_375 .def_383)))
(let ((.def_389 (and .def_384 .def_388)))
(let ((.def_369 (= .def_263 b.event_is_timed__AT2)))
(let ((.def_367 (= b.event_is_timed__AT1 .def_262)))
(let ((.def_370 (and .def_367 .def_369)))
(let ((.def_359 (and .def_351 .def_358)))
(let ((.def_312 (<= 0.0 b.speed_y__AT1)))
(let ((.def_313 (not .def_312)))
(let ((.def_311 (= b.y__AT1 0.0 )))
(let ((.def_314 (and .def_311 .def_313)))
(let ((.def_360 (or .def_314 .def_359)))
(let ((.def_328 (or .def_6 b.counter.0__AT1)))
(let ((.def_327 (or b.counter.0__AT2 .def_143)))
(let ((.def_329 (and .def_327 .def_328)))
(let ((.def_330 (and .def_4 .def_329)))
(let ((.def_331 (or b.counter.1__AT1 .def_330)))
(let ((.def_326 (or b.counter.1__AT2 .def_131)))
(let ((.def_332 (and .def_326 .def_331)))
(let ((.def_343 (and .def_9 .def_332)))
(let ((.def_344 (or b.counter.2__AT1 .def_343)))
(let ((.def_338 (and .def_4 .def_143)))
(let ((.def_339 (or b.counter.1__AT1 .def_338)))
(let ((.def_340 (and .def_326 .def_339)))
(let ((.def_341 (and b.counter.2__AT2 .def_340)))
(let ((.def_342 (or .def_138 .def_341)))
(let ((.def_345 (and .def_342 .def_344)))
(let ((.def_346 (and b.counter.3__AT2 .def_345)))
(let ((.def_347 (or b.counter.3__AT1 .def_346)))
(let ((.def_333 (and b.counter.2__AT2 .def_332)))
(let ((.def_334 (or b.counter.2__AT1 .def_333)))
(let ((.def_322 (or b.counter.1__AT2 b.counter.1__AT1)))
(let ((.def_320 (and .def_4 b.counter.0__AT2)))
(let ((.def_321 (or .def_131 .def_320)))
(let ((.def_323 (and .def_321 .def_322)))
(let ((.def_324 (and .def_9 .def_323)))
(let ((.def_325 (or .def_138 .def_324)))
(let ((.def_335 (and .def_325 .def_334)))
(let ((.def_336 (and .def_12 .def_335)))
(let ((.def_337 (or .def_153 .def_336)))
(let ((.def_348 (and .def_337 .def_347)))
(let ((.def_316 (* (- 1.0) b.speed_y__AT1)))
(let ((.def_125 (* (- 1.0) speed_loss__AT0)))
(let ((.def_126 (+ 1.0 .def_125)))
(let ((.def_317 (* .def_126 .def_316)))
(let ((.def_319 (= .def_317 b.speed_y__AT2)))
(let ((.def_349 (and .def_319 .def_348)))
(let ((.def_315 (not .def_314)))
(let ((.def_350 (or .def_315 .def_349)))
(let ((.def_361 (and .def_350 .def_360)))
(let ((.def_364 (and .def_361 .def_363)))
(let ((.def_365 (or .def_262 .def_364)))
(let ((.def_366 (or b.EVENT.1__AT1 .def_365)))
(let ((.def_371 (and .def_366 .def_370)))
(let ((.def_390 (and .def_371 .def_389)))
(let ((.def_415 (and .def_390 .def_414)))
(let ((.def_418 (and .def_415 .def_417)))
(let ((.def_421 (and .def_418 .def_420)))
(let ((.def_422 (and .def_251 .def_421)))
(let ((.def_439 (and .def_422 .def_438)))
(let ((.def_443 (and .def_439 .def_442)))
(let ((.def_269 (* 49.0 b.delta__AT1)))
(let ((.def_270 (* b.delta__AT1 .def_269)))
(let ((.def_271 (* (- 1.0) .def_270)))
(let ((.def_267 (* 10.0 b.speed_y__AT1)))
(let ((.def_268 (* b.delta__AT1 .def_267)))
(let ((.def_272 (+ .def_268 .def_271)))
(let ((.def_275 (+ .def_273 .def_272)))
(let ((.def_276 (<= 0.0 .def_275)))
(let ((.def_303 (not .def_276)))
(let ((.def_288 (+ .def_278 .def_287)))
(let ((.def_289 (<= 0.0 .def_288)))
(let ((.def_304 (and .def_289 .def_303)))
(let ((.def_299 (<= b.speed_y__AT1 0.0 )))
(let ((.def_256 (<= 0.0 b.y__AT1)))
(let ((.def_302 (or .def_256 .def_299)))
(let ((.def_305 (or .def_302 .def_304)))
(let ((.def_298 (<= b.y__AT1 0.0 )))
(let ((.def_300 (and .def_298 .def_299)))
(let ((.def_293 (<= .def_288 0.0 )))
(let ((.def_294 (not .def_293)))
(let ((.def_291 (= .def_275 0.0 )))
(let ((.def_292 (not .def_291)))
(let ((.def_295 (or .def_292 .def_294)))
(let ((.def_290 (or .def_276 .def_289)))
(let ((.def_296 (and .def_290 .def_295)))
(let ((.def_279 (* b.speed_y__AT1 .def_278)))
(let ((.def_280 (* 98.0 b.y__AT1)))
(let ((.def_282 (+ .def_280 .def_279)))
(let ((.def_285 (<= .def_282 0.0 )))
(let ((.def_286 (not .def_285)))
(let ((.def_297 (or .def_286 .def_296)))
(let ((.def_301 (or .def_297 .def_300)))
(let ((.def_306 (and .def_301 .def_305)))
(let ((.def_283 (<= 0.0 .def_282)))
(let ((.def_284 (not .def_283)))
(let ((.def_307 (or .def_284 .def_306)))
(let ((.def_266 (not .def_265)))
(let ((.def_277 (or .def_266 .def_276)))
(let ((.def_308 (and .def_277 .def_307)))
(let ((.def_309 (or .def_263 .def_308)))
(let ((.def_257 (and .def_59 .def_256)))
(let ((.def_254 (or .def_251 .def_253)))
(let ((.def_244 (or .def_131 .def_143)))
(let ((.def_248 (or b.counter.3__AT1 .def_244)))
(let ((.def_245 (or b.counter.2__AT1 .def_244)))
(let ((.def_243 (or .def_138 .def_143)))
(let ((.def_246 (and .def_243 .def_245)))
(let ((.def_247 (or .def_153 .def_246)))
(let ((.def_249 (and .def_247 .def_248)))
(let ((.def_255 (and .def_249 .def_254)))
(let ((.def_258 (and .def_255 .def_257)))
(let ((.def_68 (<= 0.0 b.delta__AT0)))
(let ((.def_49 (not b.EVENT.0__AT0)))
(let ((.def_47 (not b.EVENT.1__AT0)))
(let ((.def_65 (and .def_47 .def_49)))
(let ((.def_66 (not .def_65)))
(let ((.def_239 (or .def_66 .def_68)))
(let ((.def_240 (or b.EVENT.1__AT0 .def_239)))
(let ((.def_175 (= b.counter.0__AT0 b.counter.0__AT1)))
(let ((.def_173 (= b.counter.1__AT0 b.counter.1__AT1)))
(let ((.def_171 (= b.counter.2__AT0 b.counter.2__AT1)))
(let ((.def_170 (= b.counter.3__AT0 b.counter.3__AT1)))
(let ((.def_172 (and .def_170 .def_171)))
(let ((.def_174 (and .def_172 .def_173)))
(let ((.def_176 (and .def_174 .def_175)))
(let ((.def_236 (or .def_66 .def_176)))
(let ((.def_237 (or b.EVENT.1__AT0 .def_236)))
(let ((.def_228 (* (- 5.0) b.speed_y__AT1)))
(let ((.def_95 (* (- 49.0) b.delta__AT0)))
(let ((.def_229 (+ .def_95 .def_228)))
(let ((.def_84 (* 5.0 b.speed_y__AT0)))
(let ((.def_230 (+ .def_84 .def_229)))
(let ((.def_231 (= .def_230 0.0 )))
(let ((.def_217 (* b.speed_y__AT0 b.delta__AT0)))
(let ((.def_218 (* 10.0 .def_217)))
(let ((.def_215 (* b.delta__AT0 b.delta__AT0)))
(let ((.def_216 (* (- 49.0) .def_215)))
(let ((.def_219 (+ .def_216 .def_218)))
(let ((.def_221 (* (- 10.0) b.y__AT1)))
(let ((.def_224 (+ .def_221 .def_219)))
(let ((.def_78 (* 10.0 b.y__AT0)))
(let ((.def_225 (+ .def_78 .def_224)))
(let ((.def_226 (= .def_225 0.0 )))
(let ((.def_232 (and .def_226 .def_231)))
(let ((.def_233 (or .def_66 .def_232)))
(let ((.def_181 (= b.y__AT0 b.y__AT1)))
(let ((.def_169 (= b.speed_y__AT0 b.speed_y__AT1)))
(let ((.def_212 (and .def_169 .def_181)))
(let ((.def_209 (= b.delta__AT0 0.0 )))
(let ((.def_210 (and .def_65 .def_209)))
(let ((.def_211 (not .def_210)))
(let ((.def_213 (or .def_211 .def_212)))
(let ((.def_214 (or b.EVENT.1__AT0 .def_213)))
(let ((.def_234 (and .def_214 .def_233)))
(let ((.def_191 (= b.time__AT0 b.time__AT1)))
(let ((.def_203 (and .def_181 .def_191)))
(let ((.def_204 (and .def_169 .def_203)))
(let ((.def_205 (and .def_176 .def_204)))
(let ((.def_206 (or .def_47 .def_205)))
(let ((.def_194 (* (- 1.0) b.time__AT1)))
(let ((.def_197 (+ b.delta__AT0 .def_194)))
(let ((.def_198 (+ b.time__AT0 .def_197)))
(let ((.def_199 (= .def_198 0.0 )))
(let ((.def_200 (or .def_66 .def_199)))
(let ((.def_201 (or b.EVENT.1__AT0 .def_200)))
(let ((.def_192 (or .def_65 .def_191)))
(let ((.def_193 (or b.EVENT.1__AT0 .def_192)))
(let ((.def_202 (and .def_193 .def_201)))
(let ((.def_207 (and .def_202 .def_206)))
(let ((.def_187 (= .def_66 b.event_is_timed__AT1)))
(let ((.def_185 (= b.event_is_timed__AT0 .def_65)))
(let ((.def_188 (and .def_185 .def_187)))
(let ((.def_177 (and .def_169 .def_176)))
(let ((.def_120 (<= 0.0 b.speed_y__AT0)))
(let ((.def_121 (not .def_120)))
(let ((.def_119 (= b.y__AT0 0.0 )))
(let ((.def_122 (and .def_119 .def_121)))
(let ((.def_178 (or .def_122 .def_177)))
(let ((.def_144 (or b.counter.0__AT0 .def_143)))
(let ((.def_30 (not b.counter.0__AT0)))
(let ((.def_142 (or .def_30 b.counter.0__AT1)))
(let ((.def_145 (and .def_142 .def_144)))
(let ((.def_146 (and .def_131 .def_145)))
(let ((.def_147 (or b.counter.1__AT0 .def_146)))
(let ((.def_28 (not b.counter.1__AT0)))
(let ((.def_141 (or .def_28 b.counter.1__AT1)))
(let ((.def_148 (and .def_141 .def_147)))
(let ((.def_161 (and .def_138 .def_148)))
(let ((.def_162 (or b.counter.2__AT0 .def_161)))
(let ((.def_156 (and .def_30 .def_131)))
(let ((.def_157 (or b.counter.1__AT0 .def_156)))
(let ((.def_158 (and .def_141 .def_157)))
(let ((.def_159 (and b.counter.2__AT1 .def_158)))
(let ((.def_33 (not b.counter.2__AT0)))
(let ((.def_160 (or .def_33 .def_159)))
(let ((.def_163 (and .def_160 .def_162)))
(let ((.def_164 (and b.counter.3__AT1 .def_163)))
(let ((.def_165 (or b.counter.3__AT0 .def_164)))
(let ((.def_149 (and b.counter.2__AT1 .def_148)))
(let ((.def_150 (or b.counter.2__AT0 .def_149)))
(let ((.def_135 (or b.counter.1__AT0 b.counter.1__AT1)))
(let ((.def_133 (and .def_131 b.counter.0__AT1)))
(let ((.def_134 (or .def_28 .def_133)))
(let ((.def_136 (and .def_134 .def_135)))
(let ((.def_139 (and .def_136 .def_138)))
(let ((.def_140 (or .def_33 .def_139)))
(let ((.def_151 (and .def_140 .def_150)))
(let ((.def_154 (and .def_151 .def_153)))
(let ((.def_36 (not b.counter.3__AT0)))
(let ((.def_155 (or .def_36 .def_154)))
(let ((.def_166 (and .def_155 .def_165)))
(let ((.def_124 (* (- 1.0) b.speed_y__AT0)))
(let ((.def_127 (* .def_124 .def_126)))
(let ((.def_129 (= .def_127 b.speed_y__AT1)))
(let ((.def_167 (and .def_129 .def_166)))
(let ((.def_123 (not .def_122)))
(let ((.def_168 (or .def_123 .def_167)))
(let ((.def_179 (and .def_168 .def_178)))
(let ((.def_182 (and .def_179 .def_181)))
(let ((.def_183 (or .def_65 .def_182)))
(let ((.def_184 (or b.EVENT.1__AT0 .def_183)))
(let ((.def_189 (and .def_184 .def_188)))
(let ((.def_208 (and .def_189 .def_207)))
(let ((.def_235 (and .def_208 .def_234)))
(let ((.def_238 (and .def_235 .def_237)))
(let ((.def_241 (and .def_238 .def_240)))
(let ((.def_242 (and .def_47 .def_241)))
(let ((.def_259 (and .def_242 .def_258)))
(let ((.def_31 (and .def_28 .def_30)))
(let ((.def_34 (and .def_31 .def_33)))
(let ((.def_37 (and .def_34 .def_36)))
(let ((.def_260 (and .def_37 .def_259)))
(let ((.def_73 (* 49.0 b.delta__AT0)))
(let ((.def_74 (* b.delta__AT0 .def_73)))
(let ((.def_76 (* (- 1.0) .def_74)))
(let ((.def_70 (* 10.0 b.speed_y__AT0)))
(let ((.def_71 (* b.delta__AT0 .def_70)))
(let ((.def_77 (+ .def_71 .def_76)))
(let ((.def_80 (+ .def_78 .def_77)))
(let ((.def_81 (<= 0.0 .def_80)))
(let ((.def_111 (not .def_81)))
(let ((.def_96 (+ .def_84 .def_95)))
(let ((.def_97 (<= 0.0 .def_96)))
(let ((.def_112 (and .def_97 .def_111)))
(let ((.def_107 (<= b.speed_y__AT0 0.0 )))
(let ((.def_60 (<= 0.0 b.y__AT0)))
(let ((.def_110 (or .def_60 .def_107)))
(let ((.def_113 (or .def_110 .def_112)))
(let ((.def_106 (<= b.y__AT0 0.0 )))
(let ((.def_108 (and .def_106 .def_107)))
(let ((.def_101 (<= .def_96 0.0 )))
(let ((.def_102 (not .def_101)))
(let ((.def_99 (= .def_80 0.0 )))
(let ((.def_100 (not .def_99)))
(let ((.def_103 (or .def_100 .def_102)))
(let ((.def_98 (or .def_81 .def_97)))
(let ((.def_104 (and .def_98 .def_103)))
(let ((.def_85 (* b.speed_y__AT0 .def_84)))
(let ((.def_87 (* 98.0 b.y__AT0)))
(let ((.def_89 (+ .def_87 .def_85)))
(let ((.def_92 (<= .def_89 0.0 )))
(let ((.def_93 (not .def_92)))
(let ((.def_105 (or .def_93 .def_104)))
(let ((.def_109 (or .def_105 .def_108)))
(let ((.def_114 (and .def_109 .def_113)))
(let ((.def_90 (<= 0.0 .def_89)))
(let ((.def_91 (not .def_90)))
(let ((.def_115 (or .def_91 .def_114)))
(let ((.def_69 (not .def_68)))
(let ((.def_82 (or .def_69 .def_81)))
(let ((.def_116 (and .def_82 .def_115)))
(let ((.def_117 (or .def_66 .def_116)))
(let ((.def_61 (and .def_59 .def_60)))
(let ((.def_50 (or .def_47 .def_49)))
(let ((.def_40 (or .def_28 .def_30)))
(let ((.def_44 (or b.counter.3__AT0 .def_40)))
(let ((.def_41 (or b.counter.2__AT0 .def_40)))
(let ((.def_39 (or .def_30 .def_33)))
(let ((.def_42 (and .def_39 .def_41)))
(let ((.def_43 (or .def_36 .def_42)))
(let ((.def_45 (and .def_43 .def_44)))
(let ((.def_51 (and .def_45 .def_50)))
(let ((.def_62 (and .def_51 .def_61)))
(let ((.def_25 (= b.speed_y__AT0 0.0 )))
(let ((.def_22 (= b.y__AT0 10.0 )))
(let ((.def_17 (= b.time__AT0 0.0 )))
(let ((.def_19 (and .def_17 b.event_is_timed__AT0)))
(let ((.def_23 (and .def_19 .def_22)))
(let ((.def_26 (and .def_23 .def_25)))
(let ((.def_38 (and .def_26 .def_37)))
(let ((.def_63 (and .def_38 .def_62)))
(let ((.def_7 (and .def_4 .def_6)))
(let ((.def_10 (and .def_7 .def_9)))
(let ((.def_13 (and .def_10 .def_12)))
(let ((.def_14 (not .def_13)))
(let ((.def_64 (and .def_14 .def_63)))
(let ((.def_118 (and .def_64 .def_117)))
(let ((.def_261 (and .def_118 .def_260)))
(let ((.def_310 (and .def_261 .def_309)))
(let ((.def_444 (and .def_310 .def_443)))
(let ((.def_493 (and .def_444 .def_492)))
.def_493)))))))))))))))))))))))))))))))))))))))))))))))))))))))))))))))))))))))))))))))))))))))))))))))))))))))))))))))))))))))))))))))))))))))))))))))))))))))))))))))))))))))))))))))))))))))))))))))))))))))))))))))))))))))))))))))))))))))))))))))))))))))))))))))))))))))))))))))))))))))))))))))))))))))))))))))))))))))))))))))))))))))))))))))))))))))))))))))))))))))))))))))))))))))))))))))))))))))))))))))))))))))))))))))))))))))))))))))
(check-sat)
(exit)
